language ESSENCE' 1.0

letting jobs = 102
letting horizon = 785
letting resourcesRenew = 2
letting resourcesNonrenew = 2
letting resourceLimits = [48, 50, 520, 525]
letting successors = [[2, 3, 4, 5, 6, 7, 8, 9, 10, 11, 12, 13, 14, 15, 16, 17, 18, 19, 20, 21, 23, 25, 28, 34, 35, 46, 47, 65], [101, 73, 72, 70, 64, 63, 60, 59, 57, 53, 49, 42, 41, 40, 39, 38, 37, 36, 33, 30, 29, 27, 24, 22], [100, 99, 96, 95, 92, 74, 72, 71, 70, 59, 55, 54, 53, 52, 51, 49, 42, 40, 33, 32], [101, 98, 73, 72, 70, 64, 60, 58, 57, 52, 51, 44, 42, 27, 22], [100, 98, 96, 95, 93, 73, 71, 70, 66, 63, 62, 60, 59, 57, 53, 40, 32, 27], [101, 100, 97, 96, 95, 92, 91, 74, 73, 72, 70, 69, 67, 66, 58, 55, 54, 33, 32], [101, 99, 98, 95, 91, 89, 73, 72, 70, 63, 58, 57, 51, 36, 24], [100, 98, 97, 96, 95, 94, 92, 59, 55, 53, 51, 22], [101, 99, 96, 95, 92, 72, 64, 57, 45, 32, 31, 26], [100, 94, 93, 92, 89, 73, 72, 67, 63, 58, 57, 56, 50, 44, 31], [95, 91, 73, 69, 66, 64, 48, 33, 32, 27], [97, 95, 92, 90, 72, 71, 68, 60, 57, 56, 55, 50, 42, 39], [96, 95, 93, 92, 91, 88, 83, 72, 71, 70, 54, 50, 40, 33], [101, 99, 95, 94, 93, 92, 88, 87, 83, 73, 71, 70, 66, 63, 61, 56, 54, 53, 50], [98, 94, 93, 92, 72, 71, 68, 63, 61, 56, 50, 49, 44], [99, 92, 90, 87, 74, 58, 57, 55, 54, 42, 32], [97, 96, 94, 93, 92, 88, 87, 80, 74, 71, 70, 66, 57, 54, 50, 38], [97, 96, 95, 94, 93, 89, 72, 70, 68, 59, 54, 32], [98, 97, 95, 93, 91, 90, 88, 87, 82, 79, 76, 71, 68, 67, 66, 58, 57, 56, 50], [97, 96, 95, 93, 83, 79, 74, 73, 72, 71, 68, 67, 66, 61, 57, 56, 50], [98, 97, 93, 92, 89, 88, 87, 83, 70, 69, 67, 64, 62, 59, 54, 50], [93, 91, 90, 87, 71, 68, 66, 62, 54, 32], [100, 92, 89, 83, 76, 73, 69, 67, 66, 63, 61, 59, 56, 54, 50], [97, 96, 93, 92, 87, 68, 67, 66, 32], [100, 96, 94, 93, 92, 91, 82, 81, 76, 67, 66, 58, 43], [91, 90, 89, 88, 87, 86, 85, 84, 79, 76, 73, 68, 58, 56, 54], [99, 94, 92, 90, 88, 87, 79, 76, 67, 61, 56, 54, 50], [98, 95, 93, 90, 87, 86, 84, 83, 82, 79, 76, 71, 68, 66, 56], [95, 93, 92, 90, 88, 86, 84, 79, 76, 66, 58, 54, 51], [94, 90, 88, 87, 86, 85, 82, 67, 66, 56, 55], [87, 85, 84, 83, 81, 80, 78, 76, 70, 69, 68, 61], [88, 83, 79, 76, 61, 56, 50], [98, 94, 90, 89, 84, 81, 79, 78, 75, 68, 62], [100, 92, 91, 89, 87, 83, 81, 67, 66, 62], [96, 92, 90, 89, 88, 87, 81, 76, 50], [96, 90, 88, 87, 84, 80, 69, 68, 67, 66], [86, 84, 83, 80, 79, 78, 76, 66, 54], [89, 85, 83, 82, 81, 79, 78, 76, 75, 68, 67], [91, 89, 88, 84, 81, 79, 76, 67, 61], [97, 87, 85, 82, 76, 75, 68, 56], [99, 95, 94, 93, 83, 82, 78, 77, 76, 75], [94, 93, 83, 81, 80, 76, 67, 66], [89, 87, 86, 84, 83, 79, 78, 77, 75], [95, 91, 90, 88, 80, 78, 76, 66], [93, 91, 85, 83, 82, 81, 79, 67], [94, 92, 85, 80, 79, 67, 66], [94, 92, 88, 87, 84, 80, 78, 76], [85, 83, 80, 78, 77, 61], [85, 83, 79, 76, 67], [86, 85, 84, 78, 75], [83, 82, 81, 78, 75], [94, 86, 79, 76, 75], [91, 80, 76, 69], [82, 81, 77, 75], [84, 79, 76, 75], [81, 80, 78], [78, 77, 75], [83, 80, 75], [91, 82, 81], [83, 78, 75], [82, 75], [85, 76], [82, 79], [90, 80], [79, 78], [75], [77], [77], [86], [79], [89], [87], [80], [76], [102], [102], [102], [102], [102], [102], [102], [102], [102], [102], [102], [102], [102], [102], [102], [102], [102], [102], [102], [102], [102], [102], [102], [102], [102], [102], [102], []]
letting durations = [[0], [1, 4, 6], [1, 5, 7], [4, 7, 8], [4, 5, 6], [2, 5, 10], [2, 3, 10], [3, 5, 9], [4, 6, 7], [1, 3, 6], [2, 4, 5], [5, 5, 6], [1, 2, 4], [3, 4, 10], [1, 2, 8], [5, 6, 7], [2, 3, 10], [5, 9, 10], [2, 3, 5], [8, 9, 10], [4, 7, 8], [5, 6, 10], [5, 6, 9], [3, 4, 7], [2, 4, 8], [1, 7, 9], [5, 7, 9], [4, 5, 7], [5, 7, 9], [1, 2, 7], [2, 4, 8], [5, 6, 9], [5, 6, 9], [3, 4, 8], [1, 5, 6], [5, 6, 10], [3, 6, 9], [1, 7, 9], [1, 5, 8], [6, 7, 8], [7, 8, 9], [1, 2, 8], [3, 4, 10], [2, 5, 10], [4, 5, 6], [1, 2, 7], [8, 9, 10], [1, 4, 8], [3, 6, 9], [2, 6, 7], [3, 4, 7], [2, 5, 9], [7, 9, 10], [1, 2, 5], [3, 8, 9], [2, 4, 6], [1, 3, 5], [3, 4, 8], [2, 3, 6], [4, 6, 7], [1, 7, 8], [2, 6, 7], [1, 7, 9], [4, 6, 7], [1, 4, 5], [3, 8, 9], [3, 5, 6], [2, 3, 4], [5, 7, 8], [2, 4, 6], [1, 5, 6], [1, 3, 9], [2, 5, 10], [5, 7, 9], [5, 7, 9], [3, 8, 10], [4, 6, 9], [4, 8, 10], [1, 7, 9], [2, 3, 5], [1, 2, 6], [1, 2, 3], [3, 4, 8], [1, 6, 8], [1, 4, 8], [1, 4, 5], [5, 6, 10], [8, 9, 10], [3, 6, 7], [1, 8, 10], [3, 4, 7], [8, 9, 10], [1, 4, 5], [5, 9, 10], [2, 8, 9], [3, 6, 7], [2, 6, 10], [4, 6, 9], [1, 2, 3], [2, 6, 9], [4, 8, 9], [0]]
letting resourceUsage = [[[0, 0, 0, 0]], [[2, 4, 1, 8], [1, 2, 1, 7], [1, 2, 1, 5]], [[3, 1, 4, 5], [2, 1, 4, 4], [2, 1, 4, 3]], [[4, 4, 5, 9], [4, 4, 3, 6], [4, 3, 3, 6]], [[4, 1, 7, 4], [4, 1, 5, 4], [3, 1, 3, 2]], [[5, 5, 8, 1], [3, 4, 7, 1], [3, 4, 6, 1]], [[4, 4, 8, 8], [4, 2, 6, 7], [3, 1, 5, 6]], [[2, 2, 6, 1], [1, 1, 6, 1], [1, 1, 5, 1]], [[2, 4, 9, 6], [2, 3, 8, 4], [2, 3, 8, 3]], [[4, 4, 8, 3], [3, 4, 6, 3], [1, 3, 3, 2]], [[2, 4, 4, 8], [2, 3, 3, 5], [2, 3, 3, 1]], [[4, 5, 8, 6], [4, 4, 7, 7], [4, 4, 7, 6]], [[1, 4, 1, 7], [1, 3, 1, 5], [1, 1, 1, 5]], [[4, 3, 8, 6], [3, 2, 5, 6], [2, 1, 5, 6]], [[4, 1, 8, 5], [4, 1, 6, 5], [4, 1, 2, 4]], [[3, 4, 1, 6], [3, 4, 1, 5], [3, 4, 1, 3]], [[5, 3, 8, 2], [4, 3, 7, 2], [4, 3, 6, 2]], [[4, 2, 5, 3], [4, 1, 4, 3], [2, 1, 4, 3]], [[2, 3, 3, 3], [2, 2, 2, 1], [2, 2, 1, 1]], [[1, 5, 1, 8], [1, 4, 1, 5], [1, 3, 1, 4]], [[5, 4, 10, 7], [3, 2, 8, 4], [3, 2, 8, 2]], [[2, 3, 10, 2], [2, 3, 10, 1], [1, 2, 10, 2]], [[3, 4, 10, 7], [2, 2, 4, 5], [1, 2, 4, 3]], [[4, 5, 8, 6], [2, 4, 6, 5], [2, 4, 6, 3]], [[3, 3, 5, 7], [2, 3, 4, 5], [2, 2, 4, 2]], [[4, 4, 3, 7], [4, 3, 2, 7], [2, 2, 1, 6]], [[2, 3, 7, 3], [2, 3, 6, 3], [1, 1, 5, 3]], [[4, 4, 3, 5], [3, 3, 1, 4], [3, 1, 1, 3]], [[2, 1, 7, 10], [1, 1, 6, 6], [1, 1, 4, 5]], [[3, 3, 10, 8], [3, 3, 4, 8], [3, 3, 4, 7]], [[3, 5, 4, 4], [2, 4, 4, 2], [2, 4, 4, 1]], [[2, 4, 8, 7], [2, 4, 4, 6], [2, 4, 4, 5]], [[4, 1, 9, 8], [2, 1, 9, 6], [2, 1, 9, 4]], [[5, 5, 4, 5], [5, 3, 3, 5], [5, 3, 3, 4]], [[1, 5, 4, 3], [1, 3, 2, 3], [1, 3, 1, 3]], [[4, 4, 7, 7], [4, 2, 5, 7], [4, 2, 5, 6]], [[2, 3, 8, 5], [2, 2, 7, 4], [2, 1, 6, 4]], [[4, 4, 3, 6], [4, 3, 2, 5], [4, 3, 1, 4]], [[2, 4, 9, 10], [2, 3, 8, 5], [2, 2, 6, 2]], [[4, 5, 6, 7], [2, 3, 6, 6], [2, 2, 6, 5]], [[1, 3, 5, 9], [1, 1, 4, 9], [1, 1, 4, 8]], [[2, 4, 3, 8], [1, 4, 3, 7], [1, 4, 3, 5]], [[5, 5, 10, 10], [4, 4, 9, 8], [3, 3, 7, 5]], [[4, 2, 6, 4], [3, 2, 4, 3], [2, 2, 4, 2]], [[3, 4, 7, 3], [3, 3, 7, 2], [3, 3, 5, 1]], [[4, 3, 7, 6], [3, 2, 5, 6], [1, 2, 2, 2]], [[2, 2, 7, 7], [1, 1, 5, 7], [1, 1, 1, 7]], [[3, 5, 4, 9], [3, 4, 2, 8], [3, 3, 1, 6]], [[4, 5, 7, 9], [4, 4, 5, 4], [4, 4, 4, 2]], [[4, 3, 6, 6], [4, 2, 3, 4], [4, 1, 2, 3]], [[2, 3, 8, 7], [2, 3, 8, 4], [1, 3, 7, 4]], [[5, 3, 4, 6], [4, 2, 4, 5], [4, 1, 2, 4]], [[3, 3, 3, 4], [3, 2, 2, 3], [2, 2, 1, 3]], [[5, 2, 6, 9], [3, 2, 6, 7], [3, 2, 6, 6]], [[4, 1, 4, 9], [4, 1, 2, 5], [3, 1, 2, 3]], [[3, 3, 7, 8], [1, 3, 6, 3], [1, 3, 5, 1]], [[3, 2, 9, 8], [2, 2, 6, 6], [1, 2, 6, 6]], [[5, 4, 6, 3], [4, 3, 5, 3], [3, 2, 5, 1]], [[4, 4, 5, 10], [3, 4, 4, 6], [2, 3, 3, 4]], [[3, 4, 7, 6], [3, 3, 7, 4], [2, 3, 7, 4]], [[5, 3, 6, 9], [4, 3, 5, 9], [4, 3, 5, 8]], [[1, 5, 3, 10], [1, 3, 3, 10], [1, 2, 3, 10]], [[4, 2, 6, 6], [3, 2, 6, 6], [1, 2, 6, 5]], [[4, 1, 6, 7], [4, 1, 5, 5], [2, 1, 5, 4]], [[4, 2, 6, 7], [4, 2, 5, 6], [4, 2, 5, 5]], [[5, 3, 4, 7], [4, 3, 2, 7], [3, 2, 1, 6]], [[2, 3, 9, 6], [1, 2, 6, 4], [1, 2, 6, 3]], [[5, 4, 3, 2], [4, 3, 3, 2], [4, 3, 1, 2]], [[2, 3, 6, 7], [2, 3, 5, 6], [1, 3, 5, 6]], [[2, 2, 9, 8], [2, 2, 5, 8], [1, 2, 5, 8]], [[4, 3, 5, 9], [4, 2, 4, 5], [4, 2, 3, 4]], [[5, 1, 9, 4], [5, 1, 8, 3], [5, 1, 6, 3]], [[5, 4, 5, 6], [4, 4, 4, 6], [4, 4, 4, 5]], [[5, 4, 8, 9], [5, 3, 8, 8], [5, 2, 7, 7]], [[4, 3, 7, 7], [3, 2, 5, 5], [2, 2, 2, 5]], [[3, 2, 3, 6], [3, 2, 1, 6], [2, 2, 1, 2]], [[3, 5, 6, 7], [3, 5, 4, 7], [3, 5, 4, 6]], [[3, 3, 8, 7], [3, 3, 7, 5], [2, 3, 7, 4]], [[1, 2, 7, 5], [1, 2, 5, 4], [1, 1, 5, 3]], [[4, 3, 8, 8], [3, 3, 3, 5], [2, 3, 3, 1]], [[3, 3, 8, 8], [3, 2, 8, 8], [3, 1, 7, 8]], [[3, 4, 5, 6], [2, 3, 5, 4], [2, 3, 4, 3]], [[4, 4, 6, 6], [3, 3, 5, 5], [3, 2, 3, 5]], [[4, 5, 7, 4], [2, 4, 7, 3], [2, 4, 5, 3]], [[4, 3, 10, 4], [3, 2, 9, 4], [3, 1, 8, 3]], [[1, 5, 7, 6], [1, 4, 5, 5], [1, 4, 4, 5]], [[3, 4, 9, 10], [2, 4, 8, 9], [2, 4, 8, 8]], [[4, 2, 9, 5], [3, 1, 6, 3], [3, 1, 6, 2]], [[5, 5, 4, 3], [4, 4, 3, 3], [2, 3, 2, 2]], [[4, 3, 6, 8], [3, 2, 6, 7], [2, 1, 5, 3]], [[4, 4, 5, 8], [2, 4, 5, 6], [2, 4, 5, 5]], [[2, 5, 7, 2], [2, 2, 7, 2], [1, 2, 3, 2]], [[3, 2, 8, 2], [3, 2, 8, 1], [1, 1, 8, 2]], [[4, 5, 10, 10], [4, 5, 7, 6], [3, 5, 6, 6]], [[4, 3, 5, 10], [4, 3, 5, 7], [3, 3, 3, 6]], [[3, 3, 10, 6], [2, 3, 8, 5], [2, 3, 8, 4]], [[1, 3, 2, 5], [1, 3, 2, 4], [1, 3, 2, 3]], [[5, 1, 5, 10], [4, 1, 3, 6], [3, 1, 1, 4]], [[3, 3, 2, 9], [3, 2, 2, 9], [3, 1, 2, 9]], [[4, 5, 9, 8], [4, 5, 7, 7], [4, 5, 5, 7]], [[3, 3, 4, 8], [3, 3, 3, 7], [3, 3, 3, 3]], [[0, 0, 0, 0]]]
